unsat
( _c0
  _c11
  _c12
  _c126
  _c128
  _c135
  _c140
  _c157
  _c16
  _c166
  _c17
  _c174
  _c177
  _c194
  _c205
  _c206
  _c21
  _c214
  _c235
  _c236
  _c240
  _c241
  _c275
  _c286
  _c288
  _c295
  _c306
  _c318
  _c323
  _c347
  _c348
  _c349
  _c350
  _c353
  _c354
  _c371
  _c376
  _c379
  _c381
  _c386
  _c389
  _c392
  _c394
  _c395
  _c396
  _c397
  _c399
  _c400
  _c401
  _c402
  _c403
  _c406
  _c407
  _c408
  _c409
  _c413
  _c416
  _c418
  _c419
  _c423
  _c428
  _c434
  _c438
  _c439
  _c440
  _c444
  _c447
  _c449
  _c455
  _c460
  _c464
  _c465
  _c470
  _c471
  _c472
  _c473
  _c474
  _c475
  _c476
  _c477
  _c478
  _c479
  _c48
  _c480
  _c481
  _c482
  _c483
  _c484
  _c485
  _c486
  _c487
  _c488
  _c489
  _c490
  _c491
  _c492
  _c493
  _c494
  _c495
  _c496
  _c497
  _c498
  _c499
  _c50
  _c500
  _c504
  _c507
  _c509
  _c512
  _c513
  _c515
  _c517
  _c518
  _c519
  _c524
  _c526
  _c527
  _c528
  _c529
  _c53
  _c534
  _c535
  _c537
  _c539
  _c548
  _c553
  _c554
  _c555
  _c556
  _c557
  _c558
  _c567
  _c576
  _c578
  _c58
  _c584
  _c585
  _c586
  _c587
  _c596
  _c598
  _c6
  _c600
  _c613
  _c614
  _c615
  _c616
  _c617
  _c618
  _c619
  _c620
  _c622
  _c623
  _c638
  _c639
  _c640
  _c641
  _c644
  _c645
  _c65
  _c662
  _c663
  _c664
  _c665
  _c666
  _c667
  _c668
  _c669
  _c670
  _c671
  _c672
  _c673
  _c69
  _c70
  _c71
  _c76
  _c84
  _c99 )
